\ Model pbmcnd_4_4_1_4_grb.lp
\ LP format - for model browsing. Use MPS format to capture full model detail.
Minimize
  __pwl(w(1)) + __pwl(w(2)) + __pwl(w(3)) + __pwl(w(4))
Subject To
 R0: - w(1) = 0
 R1: xx(1,1) + xx(2,1) = 4400
 R2: - w(2) + xx(1,1) = 0
 R3: - xx(1,1) + xx(3,1) = 0
 R4: - w(3) + xx(2,1) = 0
 R5: - xx(2,1) + xx(4,1) = 0
 R6: - w(4) + xx(3,1) + xx(4,1) = 0
 R7: - xx(3,1) - xx(4,1) = -4400
 R8: xx(1,1) <= 3000
 R9: xx(2,1) <= 3000
 R10: xx(3,1) <= 3000
 R11: xx(4,1) <= 3000
Bounds
 w(1) <= 3000
 w(2) <= 2538
 w(3) <= 3471
 w(4) <= 5000
PWLObj
 w(1): (0, 0) (1.70859e-08, 0) (1.70859e-08, 1.05908e-07) 
  (1.17136e-07, 4.15992e-07) (1.17136e-07, 7.26075e-07) 
  (2.17186e-07, 1.03616e-06) (2.17186e-07, 1.34624e-06) 
  (394.9895303788575, 1224.182808951006) 
  (394.9895303788575, 1224.182808951006) (3000, 1461.5002923)
 w(2): (0, 0) (1.70859e-08, 0) (1.70859e-08, 1.02831e-07) 
  (1.01728e-07, 3.57538e-07) (1.01728e-07, 6.12246e-07) 
  (1.86371e-07, 8.66953e-07) (1.86371e-07, 1.12166e-06) 
  (334.1611427097565, 1005.563778425472) 
  (334.1611427097565, 1005.563778425472) 
  (1057.139258371164, 1754.017097922909) 
  (1057.139258371164, 1754.017097922909) (2538, 2399.958059734618)
 w(3): (0, 0) (1.70859e-08, 0) (1.70859e-08, 1.19784e-07) 
  (1.32844e-07, 5.25555e-07) (1.32844e-07, 9.31326e-07) 
  (2.48602e-07, 1.3371e-06) (2.48602e-07, 1.74287e-06) 
  (457.0028866389147, 1601.949792741234) 
  (457.0028866389147, 1601.949792741235) 
  (1445.756645239267, 2794.300457898803) 
  (1445.756645239267, 2794.300457898803) 
  (2660.320267661003, 3505.053363598893) 
  (2660.320267661003, 3505.053363598894) (3471, 3765.2347575)
 w(4): (0, 0) (5.7665e-08, 0) (5.7665e-08, 1.00298e-07) 
  (8.50956e-08, 1.24154e-07) (8.50956e-08, 1.48009e-07) 
  (1.12526e-07, 1.71865e-07) (1.12526e-07, 1.9572e-07) 
  (1.39957e-07, 2.19575e-07) (1.39957e-07, 2.43431e-07) 
  (1.67387e-07, 2.67286e-07) (1.67387e-07, 2.91142e-07) 
  (1.7218e-07, 2.9531e-07) (1.7218e-07, 2.99478e-07) 
  (1.76877e-07, 3.03562e-07) (1.76877e-07, 3.07647e-07) 
  (1.81483e-07, 3.11653e-07) (1.81483e-07, 3.15659e-07) 
  (1.86005e-07, 3.19592e-07) (1.86005e-07, 3.23524e-07) 
  (1.90446e-07, 3.27386e-07) (1.90446e-07, 3.31248e-07) 
  (1.9481e-07, 3.35043e-07) (1.9481e-07, 3.38839e-07) 
  (1.99102e-07, 3.42571e-07) (1.99102e-07, 3.46304e-07) 
  (2.03325e-07, 3.49976e-07) (2.03325e-07, 3.53648e-07) 
  (2.07481e-07, 3.57263e-07) (2.07481e-07, 3.60878e-07) 
  (2.11575e-07, 3.64438e-07) (2.11575e-07, 3.67999e-07) 
  (2.15609e-07, 3.71507e-07) (2.15609e-07, 3.75015e-07) 
  (2.19585e-07, 3.78473e-07) (2.19585e-07, 3.8193e-07) 
  (2.23506e-07, 3.8534e-07) (2.23506e-07, 3.8875e-07) 
  (2.27374e-07, 3.92114e-07) (2.27374e-07, 3.95478e-07) 
  (2.31191e-07, 3.98798e-07) (2.31191e-07, 4.02117e-07) 
  (2.34959e-07, 4.05394e-07) (2.34959e-07, 4.08671e-07) 
  (2.38681e-07, 4.11908e-07) (2.38681e-07, 4.15144e-07) 
  (2.42356e-07, 4.18341e-07) (2.42356e-07, 4.21537e-07) 
  (2.45989e-07, 4.24696e-07) (2.45989e-07, 4.27855e-07) 
  (2.49578e-07, 4.30977e-07) (2.49578e-07, 4.34099e-07) 
  (2.53128e-07, 4.37186e-07) (2.53128e-07, 4.40272e-07) 
  (2.56637e-07, 4.43325e-07) (2.56637e-07, 4.46377e-07) 
  (2.60109e-07, 4.49396e-07) (2.60109e-07, 4.52415e-07) 
  (2.63544e-07, 4.55402e-07) (2.63544e-07, 4.58389e-07) 
  (2.66943e-07, 4.61345e-07) (2.66943e-07, 4.64301e-07) 
  (2.70307e-07, 4.67227e-07) (2.70307e-07, 4.70153e-07) 
  (2.73638e-07, 4.7305e-07) (2.73638e-07, 4.75946e-07) 
  (2.76936e-07, 4.78815e-07) (2.76936e-07, 4.81683e-07) 
  (2.80203e-07, 4.84524e-07) (2.80203e-07, 4.87364e-07) 
  (2.83438e-07, 4.90178e-07) (2.83438e-07, 4.92992e-07) 
  (2.86644e-07, 4.9578e-07) (2.86644e-07, 4.98568e-07) 
  (2.8982e-07, 5.0133e-07) (2.8982e-07, 5.04093e-07) 
  (2.92969e-07, 5.06831e-07) (2.92969e-07, 5.09569e-07) 
  (2.96089e-07, 5.12283e-07) (2.96089e-07, 5.14996e-07) 
  (2.99183e-07, 5.17687e-07) (2.99183e-07, 5.20378e-07) 
  (3.02251e-07, 5.23045e-07) (3.02251e-07, 5.25713e-07) 
  (658.3158837549514, 572.5138212563711) 
  (658.3158837549514, 572.5138212563712) 
  (2082.62265165566, 998.6428040405688) 
  (2082.62265165566, 998.6428040405688) 
  (3832.210122098972, 1252.655672545841) 
  (3832.210122098972, 1252.65567254584) (5000, 1345.6407617)
End
